c 
c U(n,d) graph
c graph gen seed     : 3410
c number of vertices : 50
c max number of edges: 1225
c Euclidean distance : 0.400000
c data structure     : sparse
c
c           Graph Stats
c number of vertices  : 50
c nonisolated vertices: 50
c number of edges     : 459
c edge density        : 0.374694
c max degree          : 34
c avg degree          : 18.36
c min degree          : 5
p col 50 459
e 1 50
e 1 49
e 1 45
e 1 41
e 1 39
e 1 35
e 1 34
e 1 30
e 1 27
e 1 20
e 1 14
e 1 13
e 1 12
e 1 9
e 1 6
e 1 5
e 1 4
e 2 49
e 2 48
e 2 47
e 2 46
e 2 45
e 2 41
e 2 40
e 2 38
e 2 37
e 2 35
e 2 29
e 2 28
e 2 25
e 2 24
e 2 23
e 2 21
e 2 20
e 2 19
e 2 18
e 2 13
e 2 12
e 2 11
e 2 10
e 2 9
e 2 5
e 2 4
e 3 48
e 3 44
e 3 42
e 3 32
e 3 31
e 3 28
e 3 26
e 3 22
e 3 21
e 3 20
e 3 19
e 3 17
e 3 16
e 3 15
e 3 12
e 3 10
e 3 8
e 3 7
e 4 50
e 4 49
e 4 48
e 4 45
e 4 41
e 4 40
e 4 39
e 4 38
e 4 37
e 4 35
e 4 34
e 4 30
e 4 27
e 4 21
e 4 20
e 4 14
e 4 13
e 4 12
e 4 10
e 4 9
e 4 6
e 4 5
e 5 50
e 5 49
e 5 48
e 5 45
e 5 41
e 5 40
e 5 39
e 5 38
e 5 37
e 5 35
e 5 30
e 5 27
e 5 26
e 5 21
e 5 20
e 5 13
e 5 12
e 5 10
e 5 9
e 5 6
e 6 50
e 6 48
e 6 41
e 6 35
e 6 31
e 6 26
e 6 21
e 6 20
e 6 16
e 6 15
e 6 13
e 6 12
e 6 9
e 6 8
e 7 48
e 7 47
e 7 46
e 7 43
e 7 42
e 7 32
e 7 29
e 7 28
e 7 21
e 7 19
e 7 17
e 7 11
e 7 10
e 8 48
e 8 44
e 8 42
e 8 32
e 8 31
e 8 28
e 8 26
e 8 22
e 8 21
e 8 20
e 8 19
e 8 17
e 8 16
e 8 15
e 8 12
e 8 10
e 9 50
e 9 49
e 9 48
e 9 45
e 9 41
e 9 40
e 9 39
e 9 38
e 9 35
e 9 30
e 9 27
e 9 21
e 9 20
e 9 13
e 9 12
e 9 10
e 10 49
e 10 48
e 10 47
e 10 46
e 10 45
e 10 42
e 10 41
e 10 40
e 10 38
e 10 37
e 10 35
e 10 32
e 10 31
e 10 29
e 10 28
e 10 26
e 10 22
e 10 21
e 10 20
e 10 19
e 10 17
e 10 16
e 10 13
e 10 12
e 10 11
e 11 48
e 11 47
e 11 46
e 11 43
e 11 42
e 11 40
e 11 38
e 11 37
e 11 33
e 11 32
e 11 29
e 11 28
e 11 23
e 11 21
e 11 19
e 11 18
e 12 50
e 12 49
e 12 48
e 12 45
e 12 41
e 12 40
e 12 38
e 12 35
e 12 31
e 12 26
e 12 21
e 12 20
e 12 17
e 12 16
e 12 15
e 12 13
e 13 49
e 13 48
e 13 46
e 13 45
e 13 41
e 13 40
e 13 39
e 13 38
e 13 37
e 13 35
e 13 30
e 13 27
e 13 26
e 13 21
e 13 20
e 14 49
e 14 45
e 14 39
e 14 36
e 14 35
e 14 34
e 14 30
e 14 27
e 15 44
e 15 31
e 15 26
e 15 22
e 15 21
e 15 17
e 15 16
e 16 48
e 16 44
e 16 42
e 16 31
e 16 28
e 16 26
e 16 22
e 16 21
e 16 20
e 16 19
e 16 17
e 17 48
e 17 44
e 17 42
e 17 38
e 17 32
e 17 31
e 17 29
e 17 28
e 17 26
e 17 22
e 17 21
e 17 20
e 17 19
e 18 47
e 18 46
e 18 40
e 18 38
e 18 37
e 18 25
e 18 24
e 18 23
e 19 48
e 19 47
e 19 46
e 19 44
e 19 43
e 19 42
e 19 40
e 19 38
e 19 37
e 19 32
e 19 29
e 19 28
e 19 26
e 19 22
e 19 21
e 20 50
e 20 49
e 20 48
e 20 46
e 20 45
e 20 41
e 20 40
e 20 39
e 20 38
e 20 37
e 20 35
e 20 31
e 20 26
e 20 21
e 21 49
e 21 48
e 21 47
e 21 46
e 21 45
e 21 42
e 21 41
e 21 40
e 21 38
e 21 37
e 21 35
e 21 32
e 21 31
e 21 29
e 21 28
e 21 26
e 21 22
e 22 44
e 22 42
e 22 32
e 22 31
e 22 28
e 22 26
e 23 47
e 23 46
e 23 43
e 23 40
e 23 37
e 23 33
e 23 25
e 23 24
e 24 46
e 24 40
e 24 37
e 24 33
e 24 25
e 25 49
e 25 46
e 25 45
e 25 40
e 25 38
e 25 37
e 25 36
e 26 48
e 26 44
e 26 42
e 26 41
e 26 38
e 26 32
e 26 31
e 26 28
e 27 49
e 27 45
e 27 41
e 27 39
e 27 36
e 27 35
e 27 34
e 27 30
e 28 48
e 28 47
e 28 46
e 28 44
e 28 43
e 28 42
e 28 40
e 28 38
e 28 37
e 28 32
e 28 29
e 29 48
e 29 47
e 29 46
e 29 43
e 29 42
e 29 40
e 29 38
e 29 37
e 29 32
e 30 49
e 30 45
e 30 41
e 30 39
e 30 36
e 30 35
e 30 34
e 31 48
e 31 44
e 32 47
e 32 46
e 32 44
e 32 43
e 32 42
e 33 47
e 33 43
e 34 49
e 34 45
e 34 39
e 34 36
e 34 35
e 35 49
e 35 48
e 35 45
e 35 41
e 35 40
e 35 39
e 35 38
e 35 37
e 36 49
e 36 45
e 37 49
e 37 48
e 37 47
e 37 46
e 37 45
e 37 40
e 37 38
e 38 49
e 38 48
e 38 47
e 38 46
e 38 45
e 38 41
e 38 40
e 39 49
e 39 45
e 39 41
e 40 49
e 40 48
e 40 47
e 40 46
e 40 45
e 40 41
e 41 50
e 41 49
e 41 48
e 41 45
e 42 47
e 42 46
e 42 44
e 43 47
e 43 46
e 45 49
e 45 48
e 45 46
e 46 48
e 46 47
e 47 48
e 48 49
